216
0 3 18 108 110 20 1 19 73 92 
91 56 55 37 50 43 44 79 86 85 
74 90 57 93 72 51 42 48 39 36 
54 38 49 80 84 75 87 78 45 81 
215 213 210 212 211 214 142 34 106 70 
190 196 184 202 208 58 40 94 22 4 
130 112 124 118 10 88 46 82 52 76 
16 178 175 176 174 177 131 113 5 89 
47 83 53 41 59 95 23 77 17 119 
125 11 145 157 152 151 158 144 156 150 
153 159 147 165 162 146 164 163 167 149 
161 155 179 143 35 107 71 68 104 66 
69 105 102 33 30 141 138 140 139 31 
32 103 67 180 201 198 183 192 189 195 
186 194 181 199 200 182 193 187 188 191 
197 185 203 207 204 206 205 209 137 29 
101 65 173 171 168 170 169 172 166 148 
160 154 136 28 100 64 62 60 63 99 
27 24 135 132 134 26 133 25 97 61 
98 96 9 117 15 111 123 114 12 2 
13 14 6 8 7 115 122 120 116 121 
109 127 128 126 129 21 
